*SENSE:Minimize
NAME          MODEL
ROWS
 N  OBJ
 E  C0000000
 L  C0000001
 G  C0000002
 E  C0000003
 L  C0000004
 G  C0000005
 E  C0000006
 L  C0000007
 G  C0000008
 E  C0000009
 L  C0000010
 G  C0000011
 E  C0000012
 L  C0000013
 G  C0000014
 E  C0000015
 L  C0000016
 G  C0000017
 E  C0000018
 L  C0000019
 G  C0000020
 E  C0000021
 L  C0000022
 G  C0000023
 E  C0000024
 L  C0000025
 G  C0000026
 E  C0000027
 L  C0000028
 G  C0000029
 E  C0000030
 L  C0000031
 G  C0000032
 E  C0000033
 L  C0000034
 G  C0000035
 E  C0000036
 L  C0000037
 G  C0000038
 E  C0000039
 L  C0000040
 G  C0000041
 E  C0000042
 L  C0000043
 G  C0000044
 E  C0000045
 L  C0000046
 G  C0000047
 E  C0000048
 L  C0000049
 G  C0000050
 E  C0000051
 L  C0000052
 G  C0000053
 E  C0000054
 L  C0000055
 G  C0000056
 E  C0000057
 L  C0000058
 G  C0000059
 E  C0000060
 L  C0000061
 G  C0000062
 E  C0000063
 L  C0000064
 G  C0000065
 E  C0000066
 L  C0000067
 G  C0000068
 E  C0000069
 L  C0000070
 G  C0000071
 E  C0000072
 L  C0000073
 G  C0000074
 E  C0000075
 L  C0000076
 G  C0000077
 E  C0000078
 L  C0000079
 G  C0000080
 E  C0000081
 L  C0000082
 G  C0000083
 E  C0000084
 L  C0000085
 G  C0000086
 E  C0000087
 L  C0000088
 G  C0000089
 E  C0000090
 L  C0000091
 G  C0000092
 E  C0000093
 L  C0000094
 G  C0000095
 E  C0000096
 L  C0000097
 G  C0000098
 E  C0000099
 L  C0000100
 G  C0000101
 E  C0000102
 G  C0000103
 L  C0000104
 E  C0000105
 G  C0000106
 L  C0000107
 E  C0000108
 G  C0000109
 L  C0000110
 E  C0000111
 G  C0000112
 L  C0000113
 E  C0000114
 G  C0000115
 L  C0000116
 E  C0000117
 G  C0000118
 L  C0000119
 E  C0000120
 G  C0000121
 L  C0000122
 E  C0000123
 G  C0000124
 L  C0000125
 E  C0000126
 G  C0000127
 L  C0000128
 E  C0000129
 G  C0000130
 L  C0000131
 E  C0000132
 G  C0000133
 L  C0000134
 E  C0000135
 G  C0000136
 L  C0000137
 E  C0000138
 G  C0000139
 L  C0000140
 E  C0000141
 G  C0000142
 L  C0000143
 L  C0000144
 G  C0000145
 G  C0000146
 L  C0000147
 G  C0000148
 L  C0000149
 G  C0000150
 L  C0000151
 G  C0000152
 L  C0000153
 G  C0000154
 L  C0000155
 G  C0000156
 L  C0000157
 G  C0000158
 L  C0000159
 G  C0000160
 L  C0000161
 G  C0000162
 L  C0000163
 G  C0000164
 L  C0000165
 G  C0000166
 L  C0000167
 G  C0000168
 L  C0000169
 G  C0000170
 L  C0000171
 G  C0000172
 L  C0000173
 G  C0000174
 L  C0000175
 G  C0000176
 L  C0000177
 G  C0000178
 L  C0000179
 G  C0000180
 L  C0000181
 G  C0000182
 L  C0000183
 G  C0000184
 L  C0000185
 G  C0000186
 L  C0000187
 G  C0000188
 L  C0000189
 G  C0000190
 L  C0000191
 G  C0000192
 L  C0000193
 L  C0000194
 G  C0000195
 L  C0000196
 G  C0000197
 L  C0000198
 G  C0000199
 L  C0000200
 G  C0000201
 L  C0000202
 G  C0000203
 L  C0000204
 G  C0000205
 L  C0000206
 G  C0000207
 L  C0000208
 G  C0000209
 L  C0000210
 G  C0000211
 L  C0000212
 G  C0000213
 L  C0000214
 G  C0000215
 L  C0000216
 G  C0000217
 L  C0000218
 G  C0000219
 L  C0000220
 G  C0000221
 L  C0000222
 G  C0000223
 L  C0000224
 G  C0000225
 L  C0000226
 G  C0000227
 L  C0000228
 G  C0000229
 L  C0000230
 G  C0000231
 L  C0000232
 G  C0000233
 L  C0000234
 G  C0000235
 L  C0000236
 G  C0000237
 L  C0000238
 G  C0000239
 L  C0000240
 G  C0000241
 G  C0000242
 G  C0000243
 G  C0000244
 G  C0000245
 G  C0000246
 G  C0000247
 G  C0000248
 L  C0000249
 L  C0000250
 L  C0000251
 L  C0000252
 E  C0000253
 E  C0000254
 E  C0000255
 E  C0000256
COLUMNS
    X0000000  C0000000  -8.000000000000e-01
    X0000000  C0000001   1.000000000000e+00
    X0000000  C0000102   1.000000000000e+00
    X0000000  C0000146   1.000000000000e+00
    X0000001  C0000027  -8.000000000000e-01
    X0000001  C0000028   1.000000000000e+00
    X0000001  C0000091   1.000000000000e+00
    X0000001  C0000092   1.000000000000e+00
    X0000001  C0000164   1.000000000000e+00
    X0000001  OBJ       -1.000000000000e+00
    X0000002  C0000030  -8.000000000000e-01
    X0000002  C0000031   1.000000000000e+00
    X0000002  C0000094   1.000000000000e+00
    X0000002  C0000095   1.000000000000e+00
    X0000002  C0000166   1.000000000000e+00
    X0000002  C0000244   1.000000000000e+00
    X0000002  OBJ       -1.000000000000e+00
    X0000003  C0000033  -8.000000000000e-01
    X0000003  C0000034   1.000000000000e+00
    X0000003  C0000097   1.000000000000e+00
    X0000003  C0000098   1.000000000000e+00
    X0000003  C0000168   1.000000000000e+00
    X0000003  C0000245   1.000000000000e+00
    X0000003  OBJ       -1.000000000000e+00
    X0000004  C0000036  -8.000000000000e-01
    X0000004  C0000037   1.000000000000e+00
    X0000004  C0000100   1.000000000000e+00
    X0000004  C0000101   1.000000000000e+00
    X0000004  C0000170   1.000000000000e+00
    X0000004  OBJ       -1.000000000000e+00
    X0000005  C0000039  -8.000000000000e-01
    X0000005  C0000040   1.000000000000e+00
    X0000005  C0000111   1.000000000000e+00
    X0000005  C0000172   1.000000000000e+00
    X0000006  C0000042  -8.000000000000e-01
    X0000006  C0000043   1.000000000000e+00
    X0000006  C0000114   1.000000000000e+00
    X0000006  C0000174   1.000000000000e+00
    X0000007  C0000045  -8.000000000000e-01
    X0000007  C0000046   1.000000000000e+00
    X0000007  C0000117   1.000000000000e+00
    X0000007  C0000176   1.000000000000e+00
    X0000008  C0000048  -8.000000000000e-01
    X0000008  C0000049   1.000000000000e+00
    X0000008  C0000120   1.000000000000e+00
    X0000008  C0000178   1.000000000000e+00
    X0000009  C0000051  -8.000000000000e-01
    X0000009  C0000052   1.000000000000e+00
    X0000009  C0000123   1.000000000000e+00
    X0000009  C0000180   1.000000000000e+00
    X0000010  C0000054  -8.000000000000e-01
    X0000010  C0000055   1.000000000000e+00
    X0000010  C0000126   1.000000000000e+00
    X0000010  C0000182   1.000000000000e+00
    X0000010  C0000251   1.000000000000e+00
    X0000011  C0000003  -8.000000000000e-01
    X0000011  C0000004   1.000000000000e+00
    X0000011  C0000073   1.000000000000e+00
    X0000011  C0000074   1.000000000000e+00
    X0000011  C0000148   1.000000000000e+00
    X0000011  OBJ       -1.000000000000e+00
    X0000012  C0000057  -8.000000000000e-01
    X0000012  C0000058   1.000000000000e+00
    X0000012  C0000129   1.000000000000e+00
    X0000012  C0000184   1.000000000000e+00
    X0000012  C0000250   1.000000000000e+00
    X0000013  C0000060  -8.000000000000e-01
    X0000013  C0000061   1.000000000000e+00
    X0000013  C0000132   1.000000000000e+00
    X0000013  C0000186   1.000000000000e+00
    X0000013  C0000252   1.000000000000e+00
    X0000014  C0000063  -8.000000000000e-01
    X0000014  C0000064   1.000000000000e+00
    X0000014  C0000135   1.000000000000e+00
    X0000014  C0000188   1.000000000000e+00
    X0000014  C0000249   1.000000000000e+00
    X0000015  C0000066  -8.000000000000e-01
    X0000015  C0000067   1.000000000000e+00
    X0000015  C0000138   1.000000000000e+00
    X0000015  C0000190   1.000000000000e+00
    X0000016  C0000069  -8.000000000000e-01
    X0000016  C0000070   1.000000000000e+00
    X0000016  C0000141   1.000000000000e+00
    X0000016  C0000192   1.000000000000e+00
    X0000017  C0000006  -8.000000000000e-01
    X0000017  C0000007   1.000000000000e+00
    X0000017  C0000076   1.000000000000e+00
    X0000017  C0000077   1.000000000000e+00
    X0000017  C0000150   1.000000000000e+00
    X0000017  C0000248   1.000000000000e+00
    X0000017  OBJ       -1.000000000000e+00
    X0000018  C0000009  -8.000000000000e-01
    X0000018  C0000010   1.000000000000e+00
    X0000018  C0000079   1.000000000000e+00
    X0000018  C0000080   1.000000000000e+00
    X0000018  C0000152   1.000000000000e+00
    X0000018  C0000247   1.000000000000e+00
    X0000018  OBJ       -1.000000000000e+00
    X0000019  C0000012  -8.000000000000e-01
    X0000019  C0000013   1.000000000000e+00
    X0000019  C0000082   1.000000000000e+00
    X0000019  C0000083   1.000000000000e+00
    X0000019  C0000154   1.000000000000e+00
    X0000019  C0000246   1.000000000000e+00
    X0000019  OBJ       -1.000000000000e+00
    X0000020  C0000015  -8.000000000000e-01
    X0000020  C0000016   1.000000000000e+00
    X0000020  C0000085   1.000000000000e+00
    X0000020  C0000086   1.000000000000e+00
    X0000020  C0000156   1.000000000000e+00
    X0000020  C0000242   1.000000000000e+00
    X0000020  OBJ       -1.000000000000e+00
    X0000021  C0000018  -8.000000000000e-01
    X0000021  C0000019   1.000000000000e+00
    X0000021  C0000088   1.000000000000e+00
    X0000021  C0000089   1.000000000000e+00
    X0000021  C0000158   1.000000000000e+00
    X0000021  C0000243   1.000000000000e+00
    X0000021  OBJ       -1.000000000000e+00
    X0000022  C0000021  -8.000000000000e-01
    X0000022  C0000022   1.000000000000e+00
    X0000022  C0000105   1.000000000000e+00
    X0000022  C0000160   1.000000000000e+00
    X0000023  C0000024  -8.000000000000e-01
    X0000023  C0000025   1.000000000000e+00
    X0000023  C0000108   1.000000000000e+00
    X0000023  C0000162   1.000000000000e+00
    X0000024  C0000000  -1.250000000000e+00
    X0000024  C0000002   1.000000000000e+00
    X0000024  C0000103   1.000000000000e+00
    X0000024  C0000104   1.000000000000e+00
    X0000024  C0000147   1.000000000000e+00
    X0000025  C0000027  -1.250000000000e+00
    X0000025  C0000029   1.000000000000e+00
    X0000025  C0000090   1.000000000000e+00
    X0000025  C0000165   1.000000000000e+00
    X0000026  C0000030  -1.250000000000e+00
    X0000026  C0000032   1.000000000000e+00
    X0000026  C0000093   1.000000000000e+00
    X0000026  C0000167   1.000000000000e+00
    X0000027  C0000033  -1.250000000000e+00
    X0000027  C0000035   1.000000000000e+00
    X0000027  C0000096   1.000000000000e+00
    X0000027  C0000169   1.000000000000e+00
    X0000028  C0000036  -1.250000000000e+00
    X0000028  C0000038   1.000000000000e+00
    X0000028  C0000099   1.000000000000e+00
    X0000028  C0000171   1.000000000000e+00
    X0000029  C0000039  -1.250000000000e+00
    X0000029  C0000041   1.000000000000e+00
    X0000029  C0000112   1.000000000000e+00
    X0000029  C0000113   1.000000000000e+00
    X0000029  C0000173   1.000000000000e+00
    X0000029  C0000253   1.000000000000e+00
    X0000030  C0000042  -1.250000000000e+00
    X0000030  C0000044   1.000000000000e+00
    X0000030  C0000115   1.000000000000e+00
    X0000030  C0000116   1.000000000000e+00
    X0000030  C0000175   1.000000000000e+00
    X0000030  C0000254   1.000000000000e+00
    X0000031  C0000045  -1.250000000000e+00
    X0000031  C0000047   1.000000000000e+00
    X0000031  C0000118   1.000000000000e+00
    X0000031  C0000119   1.000000000000e+00
    X0000031  C0000177   1.000000000000e+00
    X0000031  C0000256   1.000000000000e+00
    X0000032  C0000048  -1.250000000000e+00
    X0000032  C0000050   1.000000000000e+00
    X0000032  C0000121   1.000000000000e+00
    X0000032  C0000122   1.000000000000e+00
    X0000032  C0000179   1.000000000000e+00
    X0000033  C0000051  -1.250000000000e+00
    X0000033  C0000053   1.000000000000e+00
    X0000033  C0000124   1.000000000000e+00
    X0000033  C0000125   1.000000000000e+00
    X0000033  C0000181   1.000000000000e+00
    X0000034  C0000054  -1.250000000000e+00
    X0000034  C0000056   1.000000000000e+00
    X0000034  C0000127   1.000000000000e+00
    X0000034  C0000128   1.000000000000e+00
    X0000034  C0000183   1.000000000000e+00
    X0000034  C0000251   1.000000000000e+00
    X0000035  C0000003  -1.250000000000e+00
    X0000035  C0000005   1.000000000000e+00
    X0000035  C0000072   1.000000000000e+00
    X0000035  C0000149   1.000000000000e+00
    X0000036  C0000057  -1.250000000000e+00
    X0000036  C0000059   1.000000000000e+00
    X0000036  C0000130   1.000000000000e+00
    X0000036  C0000131   1.000000000000e+00
    X0000036  C0000185   1.000000000000e+00
    X0000036  C0000250   1.000000000000e+00
    X0000037  C0000060  -1.250000000000e+00
    X0000037  C0000062   1.000000000000e+00
    X0000037  C0000133   1.000000000000e+00
    X0000037  C0000134   1.000000000000e+00
    X0000037  C0000187   1.000000000000e+00
    X0000037  C0000252   1.000000000000e+00
    X0000038  C0000063  -1.250000000000e+00
    X0000038  C0000065   1.000000000000e+00
    X0000038  C0000136   1.000000000000e+00
    X0000038  C0000137   1.000000000000e+00
    X0000038  C0000189   1.000000000000e+00
    X0000038  C0000249   1.000000000000e+00
    X0000039  C0000066  -1.250000000000e+00
    X0000039  C0000068   1.000000000000e+00
    X0000039  C0000139   1.000000000000e+00
    X0000039  C0000140   1.000000000000e+00
    X0000039  C0000191   1.000000000000e+00
    X0000040  C0000069  -1.250000000000e+00
    X0000040  C0000071   1.000000000000e+00
    X0000040  C0000142   1.000000000000e+00
    X0000040  C0000143   1.000000000000e+00
    X0000040  C0000193   1.000000000000e+00
    X0000041  C0000006  -1.250000000000e+00
    X0000041  C0000008   1.000000000000e+00
    X0000041  C0000075   1.000000000000e+00
    X0000041  C0000151   1.000000000000e+00
    X0000042  C0000009  -1.250000000000e+00
    X0000042  C0000011   1.000000000000e+00
    X0000042  C0000078   1.000000000000e+00
    X0000042  C0000153   1.000000000000e+00
    X0000043  C0000012  -1.250000000000e+00
    X0000043  C0000014   1.000000000000e+00
    X0000043  C0000081   1.000000000000e+00
    X0000043  C0000155   1.000000000000e+00
    X0000044  C0000015  -1.250000000000e+00
    X0000044  C0000017   1.000000000000e+00
    X0000044  C0000084   1.000000000000e+00
    X0000044  C0000157   1.000000000000e+00
    X0000045  C0000018  -1.250000000000e+00
    X0000045  C0000020   1.000000000000e+00
    X0000045  C0000087   1.000000000000e+00
    X0000045  C0000159   1.000000000000e+00
    X0000046  C0000021  -1.250000000000e+00
    X0000046  C0000023   1.000000000000e+00
    X0000046  C0000106   1.000000000000e+00
    X0000046  C0000107   1.000000000000e+00
    X0000046  C0000161   1.000000000000e+00
    X0000047  C0000024  -1.250000000000e+00
    X0000047  C0000026   1.000000000000e+00
    X0000047  C0000109   1.000000000000e+00
    X0000047  C0000110   1.000000000000e+00
    X0000047  C0000163   1.000000000000e+00
    X0000047  C0000255   1.000000000000e+00
    X0000048  C0000000   1.000000000000e+00
    X0000048  C0000003  -1.000000000000e+00
    X0000048  C0000004   1.000000000000e+00
    X0000048  C0000005   1.000000000000e+00
    X0000048  C0000194   1.000000000000e+00
    X0000048  C0000195   1.000000000000e+00
    X0000049  C0000027   1.000000000000e+00
    X0000049  C0000030  -1.000000000000e+00
    X0000049  C0000031   1.000000000000e+00
    X0000049  C0000032   1.000000000000e+00
    X0000049  C0000212   1.000000000000e+00
    X0000049  C0000213   1.000000000000e+00
    X0000050  C0000030   1.000000000000e+00
    X0000050  C0000033  -1.000000000000e+00
    X0000050  C0000034   1.000000000000e+00
    X0000050  C0000035   1.000000000000e+00
    X0000050  C0000214   1.000000000000e+00
    X0000050  C0000215   1.000000000000e+00
    X0000051  C0000033   1.000000000000e+00
    X0000051  C0000036  -1.000000000000e+00
    X0000051  C0000037   1.000000000000e+00
    X0000051  C0000038   1.000000000000e+00
    X0000051  C0000216   1.000000000000e+00
    X0000051  C0000217   1.000000000000e+00
    X0000052  C0000036   1.000000000000e+00
    X0000052  C0000039  -1.000000000000e+00
    X0000052  C0000040   1.000000000000e+00
    X0000052  C0000041   1.000000000000e+00
    X0000052  C0000218   1.000000000000e+00
    X0000052  C0000219   1.000000000000e+00
    X0000053  C0000039   1.000000000000e+00
    X0000053  C0000042  -1.000000000000e+00
    X0000053  C0000043   1.000000000000e+00
    X0000053  C0000044   1.000000000000e+00
    X0000053  C0000220   1.000000000000e+00
    X0000053  C0000221   1.000000000000e+00
    X0000054  C0000042   1.000000000000e+00
    X0000054  C0000045  -1.000000000000e+00
    X0000054  C0000046   1.000000000000e+00
    X0000054  C0000047   1.000000000000e+00
    X0000054  C0000222   1.000000000000e+00
    X0000054  C0000223   1.000000000000e+00
    X0000055  C0000045   1.000000000000e+00
    X0000055  C0000048  -1.000000000000e+00
    X0000055  C0000049   1.000000000000e+00
    X0000055  C0000050   1.000000000000e+00
    X0000055  C0000224   1.000000000000e+00
    X0000055  C0000225   1.000000000000e+00
    X0000056  C0000048   1.000000000000e+00
    X0000056  C0000051  -1.000000000000e+00
    X0000056  C0000052   1.000000000000e+00
    X0000056  C0000053   1.000000000000e+00
    X0000056  C0000226   1.000000000000e+00
    X0000056  C0000227   1.000000000000e+00
    X0000057  C0000051   1.000000000000e+00
    X0000057  C0000054  -1.000000000000e+00
    X0000057  C0000055   1.000000000000e+00
    X0000057  C0000056   1.000000000000e+00
    X0000057  C0000228   1.000000000000e+00
    X0000057  C0000229   1.000000000000e+00
    X0000058  C0000054   1.000000000000e+00
    X0000058  C0000057  -1.000000000000e+00
    X0000058  C0000058   1.000000000000e+00
    X0000058  C0000059   1.000000000000e+00
    X0000058  C0000230   1.000000000000e+00
    X0000058  C0000231   1.000000000000e+00
    X0000059  C0000003   1.000000000000e+00
    X0000059  C0000006  -1.000000000000e+00
    X0000059  C0000007   1.000000000000e+00
    X0000059  C0000008   1.000000000000e+00
    X0000059  C0000196   1.000000000000e+00
    X0000059  C0000197   1.000000000000e+00
    X0000060  C0000057   1.000000000000e+00
    X0000060  C0000060  -1.000000000000e+00
    X0000060  C0000061   1.000000000000e+00
    X0000060  C0000062   1.000000000000e+00
    X0000060  C0000232   1.000000000000e+00
    X0000060  C0000233   1.000000000000e+00
    X0000061  C0000060   1.000000000000e+00
    X0000061  C0000063  -1.000000000000e+00
    X0000061  C0000064   1.000000000000e+00
    X0000061  C0000065   1.000000000000e+00
    X0000061  C0000234   1.000000000000e+00
    X0000061  C0000235   1.000000000000e+00
    X0000062  C0000063   1.000000000000e+00
    X0000062  C0000066  -1.000000000000e+00
    X0000062  C0000067   1.000000000000e+00
    X0000062  C0000068   1.000000000000e+00
    X0000062  C0000236   1.000000000000e+00
    X0000062  C0000237   1.000000000000e+00
    X0000063  C0000066   1.000000000000e+00
    X0000063  C0000069  -1.000000000000e+00
    X0000063  C0000070   1.000000000000e+00
    X0000063  C0000071   1.000000000000e+00
    X0000063  C0000238   1.000000000000e+00
    X0000063  C0000239   1.000000000000e+00
    X0000064  C0000069   1.000000000000e+00
    X0000064  C0000144   1.000000000000e+00
    X0000064  C0000145   1.000000000000e+00
    X0000064  C0000240   1.000000000000e+00
    X0000064  C0000241   1.000000000000e+00
    X0000065  C0000006   1.000000000000e+00
    X0000065  C0000009  -1.000000000000e+00
    X0000065  C0000010   1.000000000000e+00
    X0000065  C0000011   1.000000000000e+00
    X0000065  C0000198   1.000000000000e+00
    X0000065  C0000199   1.000000000000e+00
    X0000066  C0000009   1.000000000000e+00
    X0000066  C0000012  -1.000000000000e+00
    X0000066  C0000013   1.000000000000e+00
    X0000066  C0000014   1.000000000000e+00
    X0000066  C0000200   1.000000000000e+00
    X0000066  C0000201   1.000000000000e+00
    X0000067  C0000012   1.000000000000e+00
    X0000067  C0000015  -1.000000000000e+00
    X0000067  C0000016   1.000000000000e+00
    X0000067  C0000017   1.000000000000e+00
    X0000067  C0000202   1.000000000000e+00
    X0000067  C0000203   1.000000000000e+00
    X0000068  C0000015   1.000000000000e+00
    X0000068  C0000018  -1.000000000000e+00
    X0000068  C0000019   1.000000000000e+00
    X0000068  C0000020   1.000000000000e+00
    X0000068  C0000204   1.000000000000e+00
    X0000068  C0000205   1.000000000000e+00
    X0000069  C0000018   1.000000000000e+00
    X0000069  C0000021  -1.000000000000e+00
    X0000069  C0000022   1.000000000000e+00
    X0000069  C0000023   1.000000000000e+00
    X0000069  C0000206   1.000000000000e+00
    X0000069  C0000207   1.000000000000e+00
    X0000070  C0000021   1.000000000000e+00
    X0000070  C0000024  -1.000000000000e+00
    X0000070  C0000025   1.000000000000e+00
    X0000070  C0000026   1.000000000000e+00
    X0000070  C0000208   1.000000000000e+00
    X0000070  C0000209   1.000000000000e+00
    X0000071  C0000024   1.000000000000e+00
    X0000071  C0000027  -1.000000000000e+00
    X0000071  C0000028   1.000000000000e+00
    X0000071  C0000029   1.000000000000e+00
    X0000071  C0000210   1.000000000000e+00
    X0000071  C0000211   1.000000000000e+00
RHS
    RHS       C0000000   4.807367613200e-01
    RHS       C0000001   4.206446661550e-01
    RHS       C0000002  -3.525402916347e-01
    RHS       C0000003   0.000000000000e+00
    RHS       C0000004   9.013814274751e-01
    RHS       C0000005   1.281964696853e-01
    RHS       C0000006   0.000000000000e+00
    RHS       C0000007   9.013814274751e-01
    RHS       C0000008   1.281964696853e-01
    RHS       C0000009   0.000000000000e+00
    RHS       C0000010   9.013814274751e-01
    RHS       C0000011   1.281964696853e-01
    RHS       C0000012   0.000000000000e+00
    RHS       C0000013   9.013814274751e-01
    RHS       C0000014   1.281964696853e-01
    RHS       C0000015   0.000000000000e+00
    RHS       C0000016   9.013814274751e-01
    RHS       C0000017   1.281964696853e-01
    RHS       C0000018   0.000000000000e+00
    RHS       C0000019   9.013814274751e-01
    RHS       C0000020   1.281964696853e-01
    RHS       C0000021   0.000000000000e+00
    RHS       C0000022   9.013814274751e-01
    RHS       C0000023   1.281964696853e-01
    RHS       C0000024   0.000000000000e+00
    RHS       C0000025   9.013814274751e-01
    RHS       C0000026   1.281964696853e-01
    RHS       C0000027   0.000000000000e+00
    RHS       C0000028   9.013814274751e-01
    RHS       C0000029   1.281964696853e-01
    RHS       C0000030   0.000000000000e+00
    RHS       C0000031   9.013814274751e-01
    RHS       C0000032   1.281964696853e-01
    RHS       C0000033   0.000000000000e+00
    RHS       C0000034   9.013814274751e-01
    RHS       C0000035   1.281964696853e-01
    RHS       C0000036   0.000000000000e+00
    RHS       C0000037   9.013814274751e-01
    RHS       C0000038   1.281964696853e-01
    RHS       C0000039   0.000000000000e+00
    RHS       C0000040   9.013814274751e-01
    RHS       C0000041   1.281964696853e-01
    RHS       C0000042   0.000000000000e+00
    RHS       C0000043   9.013814274751e-01
    RHS       C0000044   1.281964696853e-01
    RHS       C0000045   0.000000000000e+00
    RHS       C0000046   9.013814274751e-01
    RHS       C0000047   1.281964696853e-01
    RHS       C0000048   0.000000000000e+00
    RHS       C0000049   9.013814274751e-01
    RHS       C0000050   1.281964696853e-01
    RHS       C0000051   0.000000000000e+00
    RHS       C0000052   9.013814274751e-01
    RHS       C0000053   1.281964696853e-01
    RHS       C0000054   0.000000000000e+00
    RHS       C0000055   9.013814274751e-01
    RHS       C0000056   1.281964696853e-01
    RHS       C0000057   0.000000000000e+00
    RHS       C0000058   9.013814274751e-01
    RHS       C0000059   1.281964696853e-01
    RHS       C0000060   0.000000000000e+00
    RHS       C0000061   9.013814274751e-01
    RHS       C0000062   1.281964696853e-01
    RHS       C0000063   0.000000000000e+00
    RHS       C0000064   9.013814274751e-01
    RHS       C0000065   1.281964696853e-01
    RHS       C0000066   0.000000000000e+00
    RHS       C0000067   9.013814274751e-01
    RHS       C0000068   1.281964696853e-01
    RHS       C0000069   0.000000000000e+00
    RHS       C0000070   9.013814274751e-01
    RHS       C0000071   1.281964696853e-01
    RHS       C0000072   0.000000000000e+00
    RHS       C0000073   1.324285294273e+00
    RHS       C0000074   0.000000000000e+00
    RHS       C0000075   0.000000000000e+00
    RHS       C0000076   2.022823335213e+00
    RHS       C0000077   0.000000000000e+00
    RHS       C0000078   0.000000000000e+00
    RHS       C0000079   2.123862833921e+00
    RHS       C0000080   0.000000000000e+00
    RHS       C0000081   0.000000000000e+00
    RHS       C0000082   2.126401666690e+00
    RHS       C0000083   0.000000000000e+00
    RHS       C0000084   0.000000000000e+00
    RHS       C0000085   5.449897795790e+01
    RHS       C0000086   0.000000000000e+00
    RHS       C0000087   0.000000000000e+00
    RHS       C0000088   4.904125958430e+01
    RHS       C0000089   0.000000000000e+00
    RHS       C0000090   0.000000000000e+00
    RHS       C0000091   1.547804808384e+00
    RHS       C0000092   0.000000000000e+00
    RHS       C0000093   0.000000000000e+00
    RHS       C0000094   2.468803797479e+00
    RHS       C0000095   0.000000000000e+00
    RHS       C0000096   0.000000000000e+00
    RHS       C0000097   2.461480611920e+00
    RHS       C0000098   0.000000000000e+00
    RHS       C0000099   0.000000000000e+00
    RHS       C0000100   5.852897891299e-01
    RHS       C0000101   0.000000000000e+00
    RHS       C0000102   0.000000000000e+00
    RHS       C0000103  -5.975915189995e+00
    RHS       C0000104   0.000000000000e+00
    RHS       C0000105   0.000000000000e+00
    RHS       C0000106  -3.736997037127e+00
    RHS       C0000107   0.000000000000e+00
    RHS       C0000108   0.000000000000e+00
    RHS       C0000109  -3.044097811367e+00
    RHS       C0000110   0.000000000000e+00
    RHS       C0000111   0.000000000000e+00
    RHS       C0000112  -1.682947877376e+00
    RHS       C0000113   0.000000000000e+00
    RHS       C0000114   0.000000000000e+00
    RHS       C0000115  -2.627143219347e+00
    RHS       C0000116   0.000000000000e+00
    RHS       C0000117   0.000000000000e+00
    RHS       C0000118  -3.341975235919e+00
    RHS       C0000119   0.000000000000e+00
    RHS       C0000120   0.000000000000e+00
    RHS       C0000121  -6.521271559480e+00
    RHS       C0000122   0.000000000000e+00
    RHS       C0000123   0.000000000000e+00
    RHS       C0000124  -8.422438774302e+00
    RHS       C0000125   0.000000000000e+00
    RHS       C0000126   0.000000000000e+00
    RHS       C0000127  -1.117172949872e+01
    RHS       C0000128   0.000000000000e+00
    RHS       C0000129   0.000000000000e+00
    RHS       C0000130  -1.037550548628e+01
    RHS       C0000131   0.000000000000e+00
    RHS       C0000132   0.000000000000e+00
    RHS       C0000133  -1.164710079866e+01
    RHS       C0000134   0.000000000000e+00
    RHS       C0000135   0.000000000000e+00
    RHS       C0000136  -1.017882728506e+01
    RHS       C0000137   0.000000000000e+00
    RHS       C0000138   0.000000000000e+00
    RHS       C0000139  -8.639069790526e+00
    RHS       C0000140   0.000000000000e+00
    RHS       C0000141   0.000000000000e+00
    RHS       C0000142  -7.129463560556e+00
    RHS       C0000143   0.000000000000e+00
    RHS       C0000144   4.807367613200e-01
    RHS       C0000145   3.204911742134e-01
    RHS       C0000146   0.000000000000e+00
    RHS       C0000147   0.000000000000e+00
    RHS       C0000148   0.000000000000e+00
    RHS       C0000149   0.000000000000e+00
    RHS       C0000150   0.000000000000e+00
    RHS       C0000151   0.000000000000e+00
    RHS       C0000152   0.000000000000e+00
    RHS       C0000153   0.000000000000e+00
    RHS       C0000154   0.000000000000e+00
    RHS       C0000155   0.000000000000e+00
    RHS       C0000156   0.000000000000e+00
    RHS       C0000157   0.000000000000e+00
    RHS       C0000158   0.000000000000e+00
    RHS       C0000159   0.000000000000e+00
    RHS       C0000160   0.000000000000e+00
    RHS       C0000161   0.000000000000e+00
    RHS       C0000162   0.000000000000e+00
    RHS       C0000163   0.000000000000e+00
    RHS       C0000164   0.000000000000e+00
    RHS       C0000165   0.000000000000e+00
    RHS       C0000166   0.000000000000e+00
    RHS       C0000167   0.000000000000e+00
    RHS       C0000168   0.000000000000e+00
    RHS       C0000169   0.000000000000e+00
    RHS       C0000170   0.000000000000e+00
    RHS       C0000171   0.000000000000e+00
    RHS       C0000172   0.000000000000e+00
    RHS       C0000173   0.000000000000e+00
    RHS       C0000174   0.000000000000e+00
    RHS       C0000175   0.000000000000e+00
    RHS       C0000176   0.000000000000e+00
    RHS       C0000177   0.000000000000e+00
    RHS       C0000178   0.000000000000e+00
    RHS       C0000179   0.000000000000e+00
    RHS       C0000180   0.000000000000e+00
    RHS       C0000181   0.000000000000e+00
    RHS       C0000182   0.000000000000e+00
    RHS       C0000183   0.000000000000e+00
    RHS       C0000184   0.000000000000e+00
    RHS       C0000185   0.000000000000e+00
    RHS       C0000186   0.000000000000e+00
    RHS       C0000187   0.000000000000e+00
    RHS       C0000188   0.000000000000e+00
    RHS       C0000189   0.000000000000e+00
    RHS       C0000190   0.000000000000e+00
    RHS       C0000191   0.000000000000e+00
    RHS       C0000192   0.000000000000e+00
    RHS       C0000193   0.000000000000e+00
    RHS       C0000194   7.211051419800e-01
    RHS       C0000195   1.602455871067e-01
    RHS       C0000196   7.211051419800e-01
    RHS       C0000197   1.602455871067e-01
    RHS       C0000198   7.211051419800e-01
    RHS       C0000199   1.602455871067e-01
    RHS       C0000200   7.211051419800e-01
    RHS       C0000201   1.602455871067e-01
    RHS       C0000202   7.211051419800e-01
    RHS       C0000203   1.602455871067e-01
    RHS       C0000204   7.211051419800e-01
    RHS       C0000205   1.602455871067e-01
    RHS       C0000206   7.211051419800e-01
    RHS       C0000207   1.602455871067e-01
    RHS       C0000208   7.211051419800e-01
    RHS       C0000209   1.602455871067e-01
    RHS       C0000210   7.211051419800e-01
    RHS       C0000211   1.602455871067e-01
    RHS       C0000212   7.211051419800e-01
    RHS       C0000213   1.602455871067e-01
    RHS       C0000214   7.211051419800e-01
    RHS       C0000215   1.602455871067e-01
    RHS       C0000216   7.211051419800e-01
    RHS       C0000217   1.602455871067e-01
    RHS       C0000218   7.211051419800e-01
    RHS       C0000219   1.602455871067e-01
    RHS       C0000220   7.211051419800e-01
    RHS       C0000221   1.602455871067e-01
    RHS       C0000222   7.211051419800e-01
    RHS       C0000223   1.602455871067e-01
    RHS       C0000224   7.211051419800e-01
    RHS       C0000225   1.602455871067e-01
    RHS       C0000226   7.211051419800e-01
    RHS       C0000227   1.602455871067e-01
    RHS       C0000228   7.211051419800e-01
    RHS       C0000229   1.602455871067e-01
    RHS       C0000230   7.211051419800e-01
    RHS       C0000231   1.602455871067e-01
    RHS       C0000232   7.211051419800e-01
    RHS       C0000233   1.602455871067e-01
    RHS       C0000234   7.211051419800e-01
    RHS       C0000235   1.602455871067e-01
    RHS       C0000236   7.211051419800e-01
    RHS       C0000237   1.602455871067e-01
    RHS       C0000238   7.211051419800e-01
    RHS       C0000239   1.602455871067e-01
    RHS       C0000240   7.211051419800e-01
    RHS       C0000241   1.602455871067e-01
    RHS       C0000242   1.089979559158e+00
    RHS       C0000243   9.808251916860e-01
    RHS       C0000244   4.937607594957e-02
    RHS       C0000245   4.922961223839e-02
    RHS       C0000246   4.252803333381e-02
    RHS       C0000247   4.247725667842e-02
    RHS       C0000248   4.045646670426e-02
    RHS       C0000249  -2.035765457012e-01
    RHS       C0000250  -2.075101097256e-01
    RHS       C0000251  -2.234345899744e-01
    RHS       C0000252  -2.329420159731e-01
    RHS       C0000253   0.000000000000e+00
    RHS       C0000254   0.000000000000e+00
    RHS       C0000255   0.000000000000e+00
    RHS       C0000256   0.000000000000e+00
BOUNDS
 UP BND       X0000000   8.012279355334e-01
 UP BND       X0000001   8.012279355334e-01
 UP BND       X0000002   8.012279355334e-01
 UP BND       X0000003   8.012279355334e-01
 UP BND       X0000004   8.012279355334e-01
 UP BND       X0000005   8.012279355334e-01
 UP BND       X0000006   8.012279355334e-01
 UP BND       X0000007   8.012279355334e-01
 UP BND       X0000008   8.012279355334e-01
 UP BND       X0000009   8.012279355334e-01
 UP BND       X0000010   8.012279355334e-01
 UP BND       X0000011   8.012279355334e-01
 UP BND       X0000012   8.012279355334e-01
 UP BND       X0000013   8.012279355334e-01
 UP BND       X0000014   8.012279355334e-01
 UP BND       X0000015   8.012279355334e-01
 UP BND       X0000016   8.012279355334e-01
 UP BND       X0000017   8.012279355334e-01
 UP BND       X0000018   8.012279355334e-01
 UP BND       X0000019   8.012279355334e-01
 UP BND       X0000020   8.012279355334e-01
 UP BND       X0000021   8.012279355334e-01
 UP BND       X0000022   8.012279355334e-01
 UP BND       X0000023   8.012279355334e-01
 LO BND       X0000024  -8.012279355334e-01
 UP BND       X0000024   0.000000000000e+00
 LO BND       X0000025  -8.012279355334e-01
 UP BND       X0000025   0.000000000000e+00
 LO BND       X0000026  -8.012279355334e-01
 UP BND       X0000026   0.000000000000e+00
 LO BND       X0000027  -8.012279355334e-01
 UP BND       X0000027   0.000000000000e+00
 LO BND       X0000028  -8.012279355334e-01
 UP BND       X0000028   0.000000000000e+00
 LO BND       X0000029  -8.012279355334e-01
 UP BND       X0000029   0.000000000000e+00
 LO BND       X0000030  -8.012279355334e-01
 UP BND       X0000030   0.000000000000e+00
 LO BND       X0000031  -8.012279355334e-01
 UP BND       X0000031   0.000000000000e+00
 LO BND       X0000032  -8.012279355334e-01
 UP BND       X0000032   0.000000000000e+00
 LO BND       X0000033  -8.012279355334e-01
 UP BND       X0000033   0.000000000000e+00
 LO BND       X0000034  -8.012279355334e-01
 UP BND       X0000034   0.000000000000e+00
 LO BND       X0000035  -8.012279355334e-01
 UP BND       X0000035   0.000000000000e+00
 LO BND       X0000036  -8.012279355334e-01
 UP BND       X0000036   0.000000000000e+00
 LO BND       X0000037  -8.012279355334e-01
 UP BND       X0000037   0.000000000000e+00
 LO BND       X0000038  -8.012279355334e-01
 UP BND       X0000038   0.000000000000e+00
 LO BND       X0000039  -8.012279355334e-01
 UP BND       X0000039   0.000000000000e+00
 LO BND       X0000040  -8.012279355334e-01
 UP BND       X0000040   0.000000000000e+00
 LO BND       X0000041  -8.012279355334e-01
 UP BND       X0000041   0.000000000000e+00
 LO BND       X0000042  -8.012279355334e-01
 UP BND       X0000042   0.000000000000e+00
 LO BND       X0000043  -8.012279355334e-01
 UP BND       X0000043   0.000000000000e+00
 LO BND       X0000044  -8.012279355334e-01
 UP BND       X0000044   0.000000000000e+00
 LO BND       X0000045  -8.012279355334e-01
 UP BND       X0000045   0.000000000000e+00
 LO BND       X0000046  -8.012279355334e-01
 UP BND       X0000046   0.000000000000e+00
 LO BND       X0000047  -8.012279355334e-01
 UP BND       X0000047   0.000000000000e+00
 LO BND       X0000048   1.602455871067e-01
 UP BND       X0000048   7.211051419800e-01
 LO BND       X0000049   1.602455871067e-01
 UP BND       X0000049   7.211051419800e-01
 LO BND       X0000050   1.602455871067e-01
 UP BND       X0000050   7.211051419800e-01
 LO BND       X0000051   1.602455871067e-01
 UP BND       X0000051   7.211051419800e-01
 LO BND       X0000052   1.602455871067e-01
 UP BND       X0000052   7.211051419800e-01
 LO BND       X0000053   1.602455871067e-01
 UP BND       X0000053   7.211051419800e-01
 LO BND       X0000054   1.602455871067e-01
 UP BND       X0000054   7.211051419800e-01
 LO BND       X0000055   1.602455871067e-01
 UP BND       X0000055   7.211051419800e-01
 LO BND       X0000056   1.602455871067e-01
 UP BND       X0000056   7.211051419800e-01
 LO BND       X0000057   1.602455871067e-01
 UP BND       X0000057   7.211051419800e-01
 LO BND       X0000058   1.602455871067e-01
 UP BND       X0000058   7.211051419800e-01
 LO BND       X0000059   1.602455871067e-01
 UP BND       X0000059   7.211051419800e-01
 LO BND       X0000060   1.602455871067e-01
 UP BND       X0000060   7.211051419800e-01
 LO BND       X0000061   1.602455871067e-01
 UP BND       X0000061   7.211051419800e-01
 LO BND       X0000062   1.602455871067e-01
 UP BND       X0000062   7.211051419800e-01
 LO BND       X0000063   1.602455871067e-01
 UP BND       X0000063   7.211051419800e-01
 LO BND       X0000064   1.602455871067e-01
 UP BND       X0000064   7.211051419800e-01
 LO BND       X0000065   1.602455871067e-01
 UP BND       X0000065   7.211051419800e-01
 LO BND       X0000066   1.602455871067e-01
 UP BND       X0000066   7.211051419800e-01
 LO BND       X0000067   1.602455871067e-01
 UP BND       X0000067   7.211051419800e-01
 LO BND       X0000068   1.602455871067e-01
 UP BND       X0000068   7.211051419800e-01
 LO BND       X0000069   1.602455871067e-01
 UP BND       X0000069   7.211051419800e-01
 LO BND       X0000070   1.602455871067e-01
 UP BND       X0000070   7.211051419800e-01
 LO BND       X0000071   1.602455871067e-01
 UP BND       X0000071   7.211051419800e-01
ENDATA
